clingo version 5.4.0
Reading from clingo\rna_ss_prediction_E1.lp
Solving...
Answer: 1
seq(1,c) seq(2,u) seq(3,u) seq(4,a) seq(5,c) seq(6,c) seq(7,a) seq(8,u) seq(9,c) seq(10,g) seq(11,g) seq(12,g) seq(13,u) seq(14,u) seq(15,a) seq(16,g) seq(17,a) seq(18,g) seq(19,g) seq(20,a) seq(21,g) contacts(0) energy1(0)
Optimization: 0
Answer: 2
seq(1,c) seq(2,u) seq(3,u) seq(4,a) seq(5,c) seq(6,c) seq(7,a) seq(8,u) seq(9,c) seq(10,g) seq(11,g) seq(12,g) seq(13,u) seq(14,u) seq(15,a) seq(16,g) seq(17,a) seq(18,g) seq(19,g) seq(20,a) seq(21,g) pairing(1,21) pairing(21,1) contacts(2) energy1(200)
Optimization: -200
Answer: 3
seq(1,c) seq(2,u) seq(3,u) seq(4,a) seq(5,c) seq(6,c) seq(7,a) seq(8,u) seq(9,c) seq(10,g) seq(11,g) seq(12,g) seq(13,u) seq(14,u) seq(15,a) seq(16,g) seq(17,a) seq(18,g) seq(19,g) seq(20,a) seq(21,g) pairing(1,21) pairing(21,1) pairing(14,16) pairing(16,14) contacts(4) energy1(400)
Optimization: -400
Answer: 4
seq(1,c) seq(2,u) seq(3,u) seq(4,a) seq(5,c) seq(6,c) seq(7,a) seq(8,u) seq(9,c) seq(10,g) seq(11,g) seq(12,g) seq(13,u) seq(14,u) seq(15,a) seq(16,g) seq(17,a) seq(18,g) seq(19,g) seq(20,a) seq(21,g) pairing(1,21) pairing(21,1) pairing(14,16) pairing(16,14) pairing(8,10) pairing(10,8) contacts(6) energy1(600)
Optimization: -600
Answer: 5
seq(1,c) seq(2,u) seq(3,u) seq(4,a) seq(5,c) seq(6,c) seq(7,a) seq(8,u) seq(9,c) seq(10,g) seq(11,g) seq(12,g) seq(13,u) seq(14,u) seq(15,a) seq(16,g) seq(17,a) seq(18,g) seq(19,g) seq(20,a) seq(21,g) pairing(1,21) pairing(21,1) pairing(14,16) pairing(16,14) pairing(8,10) pairing(10,8) pairing(2,4) pairing(4,2) contacts(8) energy1(800)
Optimization: -800
Answer: 6
seq(1,c) seq(2,u) seq(3,u) seq(4,a) seq(5,c) seq(6,c) seq(7,a) seq(8,u) seq(9,c) seq(10,g) seq(11,g) seq(12,g) seq(13,u) seq(14,u) seq(15,a) seq(16,g) seq(17,a) seq(18,g) seq(19,g) seq(20,a) seq(21,g) pairing(13,19) pairing(19,13) pairing(14,18) pairing(18,14) pairing(1,12) pairing(12,1) pairing(2,11) pairing(11,2) pairing(8,10) pairing(10,8) pairing(3,7) pairing(7,3) contacts(12) energy1(1200)
Optimization: -1200
Answer: 7
seq(1,c) seq(2,u) seq(3,u) seq(4,a) seq(5,c) seq(6,c) seq(7,a) seq(8,u) seq(9,c) seq(10,g) seq(11,g) seq(12,g) seq(13,u) seq(14,u) seq(15,a) seq(16,g) seq(17,a) seq(18,g) seq(19,g) seq(20,a) seq(21,g) pairing(1,21) pairing(21,1) pairing(2,20) pairing(20,2) pairing(13,19) pairing(19,13) pairing(14,18) pairing(18,14) pairing(8,12) pairing(12,8) pairing(9,11) pairing(11,9) pairing(3,7) pairing(7,3) contacts(14) energy1(1400)
Optimization: -1400
Answer: 8
seq(1,c) seq(2,u) seq(3,u) seq(4,a) seq(5,c) seq(6,c) seq(7,a) seq(8,u) seq(9,c) seq(10,g) seq(11,g) seq(12,g) seq(13,u) seq(14,u) seq(15,a) seq(16,g) seq(17,a) seq(18,g) seq(19,g) seq(20,a) seq(21,g) pairing(1,21) pairing(21,1) pairing(3,20) pairing(20,3) pairing(5,19) pairing(19,5) pairing(6,18) pairing(18,6) pairing(14,17) pairing(17,14) pairing(7,13) pairing(13,7) pairing(8,12) pairing(12,8) pairing(9,11) pairing(11,9) contacts(16) energy1(1600)
Optimization: -1600
OPTIMUM FOUND

Models       : 8
  Optimum    : yes
Optimization : -1600
Calls        : 1
Time         : 3.341s (Solving: 3.26s 1st Model: 0.00s Unsat: 3.25s)
CPU Time     : 3.328s